param n:=2;

param C : 1 2 :=
       1  0 0
       2  0 9;

param m := 2;

param b := 1 3 2 6;

param A := 
  [1,*,*]: 1 2 :=
        1  1 0
        2  0 -1

  [2,*,*]: 1  2 :=
        1  0  1
        2  1  2
;
